Route #1: 1 2 5 29 23 31 45 30 50 38 3 37 51 44 24 20 16 1
Route #2: 1 28 36 39 19 41 27 52 1
Route #3: 1 32 21 7 34 4 40 26 10 8 1
Route #4: 1 48 42 25 12 53 14 1
Route #5: 1 18 35 22 15 6 1
Route #6: 1 13 46 49 43 33 17 1
Route #7: 1 11 9 47 1
cost 1192.8390647031174
